136
154
33
54
194
158
115
77
39
141
97
173
156
38
29
142
92
81
167
154
144
14
154
164
48
177
123
77
124
127
69
25
172
153
60
154
161
168
89
70
27
195
128
59
54
76
166
49
196
55
90
139
192
164
106
145
49
41
24
96
86
190
172
61
23
73
151
140
34
101
194
84
73
54
126
108
146
156
130
155
192
176
47
62
119
94
169
55
102
31
84
53
123
78
85
4
172
173
148
146
